50

100 47 317
100 34 311
99 40 300
96 34 436
95 7 415
94 1 450
92 20 341
92 46 332
90 4 424
89 6 414
89 20 279
84 36 281
82 13 403
80 2 353
80 29 264
79 19 354
74 31 346
74 20 377
72 25 376
71 2 384
69 22 274
67 21 284
67 21 425
64 11 442
62 29 386
60 15 425
60 14 273
59 29 420
58 4 382
55 20 341
51 17 427
48 11 416
47 8 425
46 3 342
45 12 357
43 14 283
42 7 170
41 7 427
41 3 446
40 2 304
38 4 204
34 5 230
33 14 298
32 8 396
27 10 165
26 3 84
24 12 255
24 11 361
23 4 377
20 3 303
